8004.0, 7757.0, 6083.0, 6082.0, 5838.0, 5116.0, 4168.0, 3193.0, 3189.0, 3189.0, 2227.0, 2225.0, 1271.0, 1266.0, 1260.0, 1258.0, 1248.0, 300, 294, 292, 291, 288, 288, 283, 282, 275, 274, 272, 269, 268, 263, 259, 259, 254, 253, 252, 245, 245, 244, 238, 236, 232, 232, 230, 229, 229, 223, 223, 220, 217, 214, 212, 212, 208, 206, 202, 200, 199, 197, 193, 193, 191, 189, 187, 186, 183, 183, 183, 174, 170, 170, 170, 168, 166, 164, 164, 164, 163, 162, 161, 157, 157, 157, 154, 154, 153, 152, 151, 151, 147, 147, 147, 144, 144, 143, 143, 138, 138, 138, 136, 
penalties info:
(0, 0, 0)
19
0
9
0
0
